00000000000000000111
00000000000000011001
00000000000000101010
00000000000000110100
00000000000011000001
00000000000101000010
00000000000110000100
00000000001001001000
00000000001010010000
00000000001100100000
00000001110000000000
00000110010000000000
00001010100000000000
00001101000000000000
00110000010000000000
01010000100000000000
01100001000000000000
10010010000000000000
10100100000000000000
11001000000000000000